NAME: random-30-14612
TYPE: TSP
COMMENT: size=30 seed=14612
DIMENSION: 62
EDGE_WEIGHT_TYPE: EUC_2D
NODE_COORD_SECTION
+0 884 854
-0 884 854
+1 912 711
-1 439 743
+2 401 829
-2 139 897
+3 230 969
-3 737 703
+4 642 684
-4 586 72
+5 736 783
-5 826 119
+6 212 743
-6 667 51
+7 926 505
-7 617 873
+8 746 33
-8 235 384
+9 280 544
-9 141 766
+10 781 285
-10 843 456
+11 27 826
-11 373 923
+12 80 212
-12 212 576
+13 618 376
-13 713 729
+14 12 900
-14 965 688
+15 818 908
-15 20 21
+16 60 637
-16 388 421
+17 880 177
-17 924 761
+18 564 212
-18 600 626
+19 953 75
-19 931 90
+20 268 871
-20 491 439
+21 562 234
-21 481 695
+22 224 375
-22 727 951
+23 597 931
-23 85 825
+24 605 732
-24 111 485
+25 15 425
-25 240 301
+26 682 705
-26 896 110
+27 505 147
-27 235 74
+28 299 395
-28 510 335
+29 806 312
-29 795 609
+30 257 120
-30 707 605
PRECEDENCE_SECTION
+0 -0
+1 -1
+2 -2
+3 -3
+4 -4
+5 -5
+6 -6
+7 -7
+8 -8
+9 -9
+10 -10
+11 -11
+12 -12
+13 -13
+14 -14
+15 -15
+16 -16
+17 -17
+18 -18
+19 -19
+20 -20
+21 -21
+22 -22
+23 -23
+24 -24
+25 -25
+26 -26
+27 -27
+28 -28
+29 -29
+30 -30
EOF
